
%FILE DATA:	Soccer Computational Problem for MiniZinc Models	%
%AUTHOR:	Jack Wall	%
%CONTACT:  	116397063@umail.ucc.ie			%
%LAST UPDATE:	03/19/2020, 19:31:31						%
%DESCRIPTION: 	238 games played with 34 games left				%


n=17; %number of teams

%Games to play
games=[|16,1|6,5|9,16|13,2|2,16|8,1|12,10|9,15|16,6|1,11|6,4|10,9|13,3|8,12|16,11|1,9|4,13|2,5|9,6|2,4|1,5|7,14|2,10|2,12|8,9|15,17|15,8|1,3|17,16|17,11|3,5|5,2|6,11|4,3|];

%Initial points
iPoints=[51,43,42,33,47,37,30,35,30,32,35,49,28,37,36,38,32];

%POSITION CONSTRAINTS
% [|teamID, operator, position|...]
% operators index:
%  1 for =  operator
%  2 for >  operator
%  3 for >= operator
%  4 for <  operator
%  5 for <= operator
positionConstraints=[|5,5,1|1,3,2|12,1,3|2,1,4|];